Route 1 :
[0,3,168,44,255,33,285,346,177,308,237,50,243,87,251,184,126,152,70,40,342,64,83,397,196,368,94,52,189,307,158,84,358,155,391,286,314,224,260,101,382,231,89,120,374,78,348,228,174,144,180,43,127,7,334,148,90,82,49,393,17,304,232,181,216,187,266,171,133,363,69,80,240,93,234,332,60,193,104,354,247,317,169,217,26,125,375,42,11,320,62,296,219,230,290,369,142,103,98,385,269,81,325,105,273,367,165,19,226,214,65,256,21,366,357,202,400]
Route 2 :
[0,274,55,272,338,156,91,107,353,359,298,384,138,1,121,264,381,72,211,4,280,225,227,79,259,279,140,13,51,352,254,265,134,92,329,386,194,313,389,115,331,131,10,99,362,244,223,58,31,361,253,61,328,344,59,147,292,109,343,326,157,306,129,310,250,112,349,100,395,319,67,252,123,47,205,122,46,6,63,159,106,195,117,20,14,300,25,327,166,163,172,12,316,267,16,185,66,204,356,233,394,198,76,283,210,154,201,213,284,215,335,128,119,246,221,114,303,8,200,400]
